certificates/rado_a5_c269_N53.drat
-53 0
49 0
-25 0
21 0
29 0
-45 0
-5 0
1 0
41 0
9 0
-17 0
-33 0
13 0
37 0
0
